10	5
0	1	1
1	1	3
2	2	8	6
3	2	5	10
4	1	2
5	1	9
6	1	11
7	1	11
8	1	11
9	1	11
10	1	11
11	0
0	0	0	0	0	0	0
1	1	4	2	3	2	1
2	2	3	3	1	1	5
3	2	5	1	2	3	3
4	9	1	1	2	4	3
5	4	3	4	3	2	3
6	3	3	5	1	3	4
7	2	4	5	5	4	2
8	7	3	3	1	4	1
9	7	5	5	5	5	5
10	5	2	5	2	5	1
11	0	0	0	0	0	0
7	8	7	10	7
